32
33
33
34
36
37
37
38
39
39
44
45
45
46
48
53
54
55
60
61
62
63
63
64
69
31
34
35
38
39
41
43
44
45
45
50
50
51
52
56
57
57
63
64
66
67
68
78
16
19
20
21
22
22
23
40
45
50
50
50
51
55
55
55
55
60
60
65
70
76
76
0
202
371
663
496
0
288
0
254
0
665
214
0
736
